Academic license - for non-commercial use only
Optimize a model with 89 rows, 158 columns and 476 nonzeros
Variable types: 0 continuous, 158 integer (158 binary)
Coefficient statistics:
  Matrix range     [1e+00, 1e+00]
  Objective range  [1e+00, 4e+02]
  Bounds range     [1e+00, 1e+00]
  RHS range        [1e+00, 1e+00]
Found heuristic solution: objective 71.4744000
Presolve removed 45 rows and 0 columns
Presolve time: 0.00s
Presolved: 44 rows, 158 columns, 318 nonzeros
Variable types: 0 continuous, 158 integer (158 binary)

Root relaxation: objective 9.775213e+02, 8 iterations, 0.00 seconds

    Nodes    |    Current Node    |     Objective Bounds      |     Work
 Expl Unexpl |  Obj  Depth IntInf | Incumbent    BestBd   Gap | It/Node Time

     0     0  977.52125    0    5   71.47440  977.52125  1268%     -    0s
H    0     0                     968.8700000  977.52125  0.89%     -    0s
H    0     0                     970.4261000  977.52125  0.73%     -    0s
     0     0 infeasible    0       970.42610  970.42610  0.00%     -    0s

Cutting planes:
  Zero half: 1

Explored 1 nodes (8 simplex iterations) in 0.00 seconds
Thread count was 8 (of 8 available processors)

Solution count 3: 970.426 968.87 71.4744 

Optimal solution found (tolerance 1.00e-04)
Best objective 9.704261000000e+02, best bound 9.704261000000e+02, gap 0.0000%
Obj: 970.426
